Version identifier: 12.10.0.0 | 2019-11-26 | 843d4de
CPXPARAM_WorkMem                                 16384
CPXPARAM_MIP_Limits_TreeMemory                   24576
Tried aggregator 2 times.
Aggregator did 60 substitutions.
Reduced MIP has 264 rows, 320 columns, and 1240 nonzeros.
Reduced MIP has 320 binaries, 0 generals, 0 SOSs, and 0 indicators.
Presolve time = 0,00 sec. (1,19 ticks)
Found incumbent of value 840,000000 after 0,00 sec. (1,95 ticks)
Probing time = 0,00 sec. (0,46 ticks)
Tried aggregator 1 time.
Detecting symmetries...
MIP Presolve eliminated 60 rows and 0 columns.
MIP Presolve added 120 rows and 0 columns.
Reduced MIP has 324 rows, 320 columns, and 1300 nonzeros.
Reduced MIP has 320 binaries, 0 generals, 0 SOSs, and 0 indicators.
Presolve time = 0,00 sec. (1,64 ticks)
Probing time = 0,00 sec. (0,45 ticks)
Clique table members: 860.
MIP emphasis: balance optimality and feasibility.
MIP search method: dynamic search.
Parallel mode: deterministic, using up to 16 threads.
Root relaxation solution time = 0,00 sec. (1,57 ticks)

        Nodes                                         Cuts/
   Node  Left     Objective  IInf  Best Integer    Best Bound    ItCnt     Gap

*     0+    0                          840,0000        0,0000           100,00%
*     0+    0                          492,0000        0,0000           100,00%
*     0+    0                          464,0000        0,0000           100,00%
      0     0      210,0000   250      464,0000      210,0000      138   54,74%
      0     0      210,0000   250      464,0000     Cuts: 181      200   54,74%
      0     0      210,0583   250      464,0000     Cuts: 181      335   54,73%
      0     0      210,5724   250      464,0000     Cuts: 181      360   54,62%
      0     0      211,5998   250      464,0000      Cuts: 90      408   54,40%
      0     0      211,9556   250      464,0000      Cuts: 21      434   54,32%
      0     0      232,9361   250      464,0000     Cuts: 181      725   49,80%
      0     0      233,7895   250      464,0000      Cuts: 25      752   49,61%
      0     0      234,3571   250      464,0000       Cuts: 5      824   49,49%
*     0+    0                          443,0000      234,3571            47,10%
      0     0      234,6114   250      443,0000   ZeroHalf: 4      881   46,23%
      0     0      234,7729   250      443,0000       Cuts: 4      895   46,23%
      0     2      234,7729   307      443,0000      238,2000      895   46,23%
Elapsed time = 0,30 sec. (179,18 ticks, tree = 0,02 MB, solutions = 4)
*   128+   10                          439,0000      266,2136            39,36%
*   401+  273                          438,0000      266,2136            39,22%
   2182  1411      400,8757   138      438,0000      301,5247    77908   31,16%
*  2942+ 1981                          430,0000      309,3113            28,07%
   4442  2402      400,9587   144      430,0000      374,6622   164936   12,87%

Performing restart 1

Repeating presolve.
Tried aggregator 2 times.
MIP Presolve eliminated 24 rows and 13 columns.
MIP Presolve added 12 rows and 0 columns.
MIP Presolve modified 21 coefficients.
Aggregator did 6 substitutions.
Reduced MIP has 306 rows, 301 columns, and 1210 nonzeros.
Reduced MIP has 301 binaries, 0 generals, 0 SOSs, and 0 indicators.
Presolve time = 0,01 sec. (1,63 ticks)
Tried aggregator 1 time.
Reduced MIP has 306 rows, 301 columns, and 1210 nonzeros.
Reduced MIP has 301 binaries, 0 generals, 0 SOSs, and 0 indicators.
Presolve time = 0,00 sec. (1,03 ticks)
Represolve time = 0,02 sec. (8,33 ticks)
   4444     0      237,1036   301      430,0000      Cuts: 10   181504   12,21%
   4444     0      239,2130   301      430,0000      Cuts: 11   181579   12,21%
   4444     0      240,2531   301      430,0000      Cuts: 10   181633   12,21%
   4444     0      241,9045   301      430,0000      Cuts: 13   181717   12,21%
   4444     0      243,0380   301      430,0000      Cuts: 11   181790   12,21%
   4444     0      245,3873   301      430,0000      Cuts: 12   181892   12,21%
   4444     2      245,3873   301      430,0000      377,4983   181892   12,21%
   4525    39      364,1701   188      430,0000      377,4983   187299   12,21%
   6096  1050      356,2933   163      430,0000      377,4983   252371   12,21%
   7571  2187      377,7159   161      430,0000      377,4983   313881   12,21%
   9331  3788      384,8010   183      430,0000      377,4983   407910   12,21%

Performing restart 2

Repeating presolve.
Tried aggregator 1 time.
Reduced MIP has 306 rows, 301 columns, and 1210 nonzeros.
Reduced MIP has 301 binaries, 0 generals, 0 SOSs, and 0 indicators.
Presolve time = 0,00 sec. (0,72 ticks)
Tried aggregator 1 time.
Reduced MIP has 306 rows, 301 columns, and 1210 nonzeros.
Reduced MIP has 301 binaries, 0 generals, 0 SOSs, and 0 indicators.
Presolve time = 0,00 sec. (1,03 ticks)
Represolve time = 0,02 sec. (16,74 ticks)
  10368     0      248,2083   301      430,0000      Cuts: 13   465432   12,21%
  10368     0      250,1891   301      430,0000       Cuts: 8   465523   12,21%
  10368     0      250,7923   301      430,0000      Cuts: 10   465607   12,21%
  10368     0      251,7883   301      430,0000      Cuts: 12   465726   12,21%
  10368     0      251,9850   301      430,0000       Cuts: 7   465786   12,21%
  10368     0      253,9733   301      430,0000      Cuts: 15   465941   12,21%
  10368     2      253,9733   301      430,0000      377,4983   465941   12,21%
  12752  1576      411,7495   150      430,0000      377,4983   513862   12,21%
* 15447+ 3211                          423,0000      377,4983            10,76%
  21579  2639        cutoff            423,0000      403,7194   814515    4,56%
Elapsed time = 4,66 sec. (3900,26 ticks, tree = 7,60 MB, solutions = 8)

Clique cuts applied:  67
Cover cuts applied:  370
Mixed integer rounding cuts applied:  62
Zero-half cuts applied:  6
Lift and project cuts applied:  3
Gomory fractional cuts applied:  40

Root node processing (before b&c):
  Real time             =    0,29 sec. (178,77 ticks)
Parallel b&c, 16 threads:
  Real time             =    4,75 sec. (3881,18 ticks)
  Sync time (average)   =    1,23 sec.
  Wait time (average)   =    0,01 sec.
                          ------------
Total (root+branch&cut) =    5,04 sec. (4059,96 ticks)
